<instance format="XCSP3" type="CSP">
  <variables>
    <array id="x" size="[100]"> 2..71 </array>
  </variables>
  <constraints>
    <sum>
      <list> x[17] x[81] x[27] x[97] x[65] x[19] x[71] x[3] </list>
      <coeffs> -61 -53 19 43 -17 11 -41 71 </coeffs>
      <condition> (eq,626) </condition>
    </sum>
    <sum>
      <list> x[96] x[45] x[21] </list>
      <coeffs> 7 -17 -53 </coeffs>
      <condition> (eq,-2137) </condition>
    </sum>
    <sum>
      <list> x[43] x[65] x[32] x[28] x[74] x[95] x[35] </list>
      <coeffs> -37 71 -37 -53 3 -29 43 </coeffs>
      <condition> (eq,-3127) </condition>
    </sum>
    <sum>
      <list> x[17] x[43] x[90] x[25] x[5] </list>
      <coeffs> 59 -31 71 11 71 </coeffs>
      <condition> (eq,5817) </condition>
    </sum>
    <sum>
      <list> x[44] x[65] x[82] x[37] x[0] x[99] x[68] </list>
      <coeffs> 17 23 67 5 59 71 -37 </coeffs>
      <condition> (eq,8597) </condition>
    </sum>
    <sum>
      <list> x[42] x[45] x[18] x[48] x[9] x[87] x[13] x[55] </list>
      <coeffs> -59 -59 19 -41 59 -17 -41 -71 </coeffs>
      <condition> (eq,-11586) </condition>
    </sum>
    <sum>
      <list> x[22] x[42] x[98] x[90] x[19] x[55] </list>
      <coeffs> 71 -67 31 -29 59 47 </coeffs>
      <condition> (eq,6918) </condition>
    </sum>
    <sum>
      <list> x[21] x[13] x[26] x[2] x[84] x[68] x[72] x[98] </list>
      <coeffs> 19 3 71 5 3 -23 23 59 </coeffs>
      <condition> (eq,3278) </condition>
    </sum>
    <sum>
      <list> x[54] x[68] x[46] x[49] </list>
      <coeffs> 19 29 -23 -31 </coeffs>
      <condition> (eq,-134) </condition>
    </sum>
    <sum>
      <list> x[25] x[75] x[29] x[14] </list>
      <coeffs> 41 -23 59 3 </coeffs>
      <condition> (eq,3982) </condition>
    </sum>
    <sum>
      <list> x[97] x[39] x[3] x[47] x[51] </list>
      <coeffs> -71 5 -2 -67 53 </coeffs>
      <condition> (eq,-1124) </condition>
    </sum>
    <sum>
      <list> x[71] x[67] x[95] x[29] </list>
      <coeffs> -29 23 7 31 </coeffs>
      <condition> (eq,1060) </condition>
    </sum>
    <sum>
      <list> x[61] x[90] x[67] x[26] x[14] </list>
      <coeffs> -3 13 61 -11 -23 </coeffs>
      <condition> (eq,2047) </condition>
    </sum>
    <sum>
      <list> x[29] x[47] x[80] x[57] x[86] </list>
      <coeffs> 17 -31 -37 19 -47 </coeffs>
      <condition> (eq,117) </condition>
    </sum>
    <sum>
      <list> x[87] x[66] x[56] x[60] x[5] </list>
      <coeffs> 23 31 61 -29 -71 </coeffs>
      <condition> (eq,-2457) </condition>
    </sum>
    <sum>
      <list> x[58] x[89] x[78] </list>
      <coeffs> -43 -7 61 </coeffs>
      <condition> (eq,-2607) </condition>
    </sum>
    <sum>
      <list> x[88] x[57..58] x[17] x[63] x[73] </list>
      <coeffs> -47 -3 -31 -71 5 -19 </coeffs>
      <condition> (eq,-5490) </condition>
    </sum>
    <sum>
      <list> x[40] x[98] x[16] x[31] x[4] x[18] x[62] </list>
      <coeffs> 47 -13 59 71 67 3 -41 </coeffs>
      <condition> (eq,3778) </condition>
    </sum>
    <sum>
      <list> x[99] x[50] x[18] x[49] x[5] x[75] </list>
      <coeffs> -37 59 -13 -11 -47 53 </coeffs>
      <condition> (eq,-2448) </condition>
    </sum>
    <sum>
      <list> x[74] x[79] x[75] x[10] </list>
      <coeffs> -47 61 -23 41 </coeffs>
      <condition> (eq,-550) </condition>
    </sum>
    <sum>
      <list> x[63] x[58] x[71] x[85] x[4] x[50] x[6] x[49] </list>
      <coeffs> 53 31 -3 -29 -37 -23 -53 -2 </coeffs>
      <condition> (eq,-1185) </condition>
    </sum>
    <sum>
      <list> x[21] x[72] x[40] x[98] x[47] </list>
      <coeffs> 31 19 7 -31 31 </coeffs>
      <condition> (eq,-105) </condition>
    </sum>
    <sum>
      <list> x[48] x[72] x[35] x[65] </list>
      <coeffs> 7 5 -3 -19 </coeffs>
      <condition> (eq,92) </condition>
    </sum>
    <sum>
      <list> x[84] x[98] x[15] x[89] x[10] </list>
      <coeffs> 23 37 -41 71 59 </coeffs>
      <condition> (eq,6907) </condition>
    </sum>
    <sum>
      <list> x[53] x[38] x[67] x[87] </list>
      <coeffs> 3 29 -19 37 </coeffs>
      <condition> (eq,1897) </condition>
    </sum>
    <sum>
      <list> x[94] x[3] x[82] x[15] x[4] </list>
      <coeffs> -3 -2 -3 -59 5 </coeffs>
      <condition> (eq,-1284) </condition>
    </sum>
    <sum>
      <list> x[9] x[82] x[63] x[11] x[85] x[83] </list>
      <coeffs> 19 3 2 13 31 47 </coeffs>
      <condition> (eq,4009) </condition>
    </sum>
    <sum>
      <list> x[70] x[8] x[50] x[27] x[71] x[10] x[98] </list>
      <coeffs> -61 -5 -61 -17 -37 -23 23 </coeffs>
      <condition> (eq,-4553) </condition>
    </sum>
    <sum>
      <list> x[54] x[93] x[55] x[45] x[97] x[27] x[34] x[21] </list>
      <coeffs> 23 -67 41 -2 7 -5 71 -71 </coeffs>
      <condition> (eq,1967) </condition>
    </sum>
    <sum>
      <list> x[54] x[6] x[90] x[72] x[59] x[80] </list>
      <coeffs> -43 37 -7 -61 -23 19 </coeffs>
      <condition> (eq,-2208) </condition>
    </sum>
    <sum>
      <list> x[12] x[38] x[89] x[4] x[41] x[69] x[56] </list>
      <coeffs> 2 19 41 -53 41 59 11 </coeffs>
      <condition> (eq,6814) </condition>
    </sum>
    <sum>
      <list> x[55..56] x[23] x[58] x[45] x[90] x[0] x[64] </list>
      <coeffs> 43 -2 -17 61 -3 7 -47 5 </coeffs>
      <condition> (eq,5015) </condition>
    </sum>
    <sum>
      <list> x[51] x[19] x[4] x[75] </list>
      <coeffs> -59 -43 -59 -17 </coeffs>
      <condition> (eq,-6400) </condition>
    </sum>
    <sum>
      <list> x[57] x[33] x[18] x[26] x[93] x[5] x[59] x[62] </list>
      <coeffs> -5 61 -3 47 13 -31 67 -11 </coeffs>
      <condition> (eq,2780) </condition>
    </sum>
    <sum>
      <list> x[80] x[89] x[23] </list>
      <coeffs> -17 2 -67 </coeffs>
      <condition> (eq,-2124) </condition>
    </sum>
    <sum>
      <list> x[88] x[69] x[10] x[33] x[79] x[99] x[64] x[86] </list>
      <coeffs> 47 -41 43 -7 -47 -37 5 -53 </coeffs>
      <condition> (eq,-4706) </condition>
    </sum>
    <sum>
      <list> x[24] x[63] x[12] x[4] </list>
      <coeffs> -71 -67 -29 -43 </coeffs>
      <condition> (eq,-4376) </condition>
    </sum>
    <sum>
      <list> x[57] x[16] x[22] x[79] x[78] </list>
      <coeffs> -29 -41 -13 3 19 </coeffs>
      <condition> (eq,-1002) </condition>
    </sum>
    <sum>
      <list> x[94] x[37] x[17] x[9] x[8] x[95] x[69] x[76] </list>
      <coeffs> -47 43 -41 13 -29 -5 -71 -41 </coeffs>
      <condition> (eq,-8762) </condition>
    </sum>
    <sum>
      <list> x[24] x[86] x[94] x[41] x[37] x[90] x[13] </list>
      <coeffs> -43 71 -23 -5 7 71 37 </coeffs>
      <condition> (eq,4385) </condition>
    </sum>
  </constraints>
</instance>
